(set-info :original "/var/folders/xz/sgqbj6yn0yv_1mpy6_jqympm0000gn/T/sea-Qlb4Ta/cmp_ant.pp.ms.o.bc")
(set-info :authors "SeaHorn v.0.1.0-rc3")
(declare-rel verifier.error (Bool Bool Bool ))
(declare-rel main@entry (Int Int ))
(declare-rel main@_bb (Int Int Int (Array Int Int) Int Int (Array Int Int) ))
(declare-rel main@_bb7 (Int Int Int Int (Array Int Int) (Array Int Int) Int ))
(declare-rel main@_bb9 (Int Int (Array Int Int) (Array Int Int) Int ))
(declare-rel main@_bb16 (Int Int Int Int (Array Int Int) (Array Int Int) ))
(declare-rel main@verifier.error.split ())
(declare-var main@%_7_0 Int )
(declare-var main@%_8_0 Int )
(declare-var main@%_9_0 Int )
(declare-var main@%_20_0 Int )
(declare-var main@%_21_0 Int )
(declare-var main@%_22_0 Int )
(declare-var main@%_99_0 Bool )
(declare-var main@%_100_0 Int )
(declare-var main@%_101_0 Bool )
(declare-var main@%_96_0 Bool )
(declare-var main@%_97_0 Bool )
(declare-var main@%or.cond.i_0 Bool )
(declare-var main@%_91_0 Int )
(declare-var main@%_92_0 Int )
(declare-var main@%_93_0 Int )
(declare-var main@%_94_0 Int )
(declare-var main@%_95_0 Bool )
(declare-var main@%_87_0 Int )
(declare-var main@%_88_0 Int )
(declare-var main@%_89_0 Bool )
(declare-var main@%_83_0 Int )
(declare-var main@%_84_0 Int )
(declare-var main@%_85_0 Bool )
(declare-var main@%_77_0 Int )
(declare-var main@%_78_0 Int )
(declare-var main@%_79_0 Int )
(declare-var main@%_80_0 Int )
(declare-var main@%_81_0 Bool )
(declare-var main@%.0.i8.i_4 Int )
(declare-var main@%_70_0 Int )
(declare-var main@%_71_0 Int )
(declare-var main@%_72_0 Int )
(declare-var main@%_73_0 Int )
(declare-var main@%_74_0 Bool )
(declare-var main@%_66_0 Int )
(declare-var main@%_67_0 Int )
(declare-var main@%_68_0 Bool )
(declare-var main@%_62_0 Int )
(declare-var main@%_63_0 Int )
(declare-var main@%_64_0 Bool )
(declare-var main@%_56_0 Int )
(declare-var main@%_57_0 Int )
(declare-var main@%_58_0 Int )
(declare-var main@%_59_0 Int )
(declare-var main@%_60_0 Bool )
(declare-var main@%_52_0 Int )
(declare-var main@%_53_0 Int )
(declare-var main@%_54_0 Bool )
(declare-var main@%_48_0 Int )
(declare-var main@%_49_0 Int )
(declare-var main@%_50_0 Bool )
(declare-var main@%_42_0 Int )
(declare-var main@%_43_0 Int )
(declare-var main@%_44_0 Int )
(declare-var main@%_45_0 Int )
(declare-var main@%_46_0 Bool )
(declare-var main@%_35_0 Int )
(declare-var main@%_36_0 Int )
(declare-var main@%_37_0 Int )
(declare-var main@%_38_0 Int )
(declare-var main@%_39_0 Bool )
(declare-var main@%_31_0 Int )
(declare-var main@%_32_0 Int )
(declare-var main@%_33_0 Bool )
(declare-var main@%_27_0 Int )
(declare-var main@%_28_0 Int )
(declare-var main@%_29_0 Bool )
(declare-var main@%_24_0 Int )
(declare-var main@%_25_0 Int )
(declare-var main@%_17_0 Int )
(declare-var main@%_18_0 Bool )
(declare-var main@%_11_0 Int )
(declare-var main@%_12_0 Int )
(declare-var main@%_13_0 Int )
(declare-var main@%_4_0 Int )
(declare-var main@%_5_0 Bool )
(declare-var main@%_0_0 Int )
(declare-var @__VERIFIER_nondet_char_0 Int )
(declare-var @__VERIFIER_nondet_int_0 Int )
(declare-var main@entry_0 Bool )
(declare-var main@%sm4_0 (Array Int Int) )
(declare-var main@%sm5_0 (Array Int Int) )
(declare-var main@%_1_0 Int )
(declare-var main@%_2_0 Int )
(declare-var main@_bb_0 Bool )
(declare-var main@%shadow.mem.0.0_0 (Array Int Int) )
(declare-var main@%.0.i.i_0 Int )
(declare-var main@%shadow.mem.0.0_1 (Array Int Int) )
(declare-var main@%.0.i.i_1 Int )
(declare-var main@_bb6_0 Bool )
(declare-var main@%sm_0 (Array Int Int) )
(declare-var main@%_10_0 Int )
(declare-var main@_bb_1 Bool )
(declare-var main@%shadow.mem.0.0_2 (Array Int Int) )
(declare-var main@%.0.i.i_2 Int )
(declare-var main@init.exit.i_0 Bool )
(declare-var main@%sm1_0 (Array Int Int) )
(declare-var main@%_14_0 Int )
(declare-var main@%_15_0 Int )
(declare-var main@_bb7_0 Bool )
(declare-var main@%shadow.mem.1.0_0 (Array Int Int) )
(declare-var main@%.0.i2.i_0 Int )
(declare-var main@%shadow.mem.1.0_1 (Array Int Int) )
(declare-var main@%.0.i2.i_1 Int )
(declare-var main@_bb8_0 Bool )
(declare-var main@%sm2_0 (Array Int Int) )
(declare-var main@%_23_0 Int )
(declare-var main@_bb7_1 Bool )
(declare-var main@%shadow.mem.1.0_2 (Array Int Int) )
(declare-var main@%.0.i2.i_2 Int )
(declare-var main@init.exit3.i_0 Bool )
(declare-var main@%sm3_0 (Array Int Int) )
(declare-var main@_bb9_0 Bool )
(declare-var main@%.01.i.i_0 Int )
(declare-var main@%.01.i.i_1 Int )
(declare-var main@_bb10_0 Bool )
(declare-var main@_bb11_0 Bool )
(declare-var main@_bb12_0 Bool )
(declare-var main@%_41_0 Int )
(declare-var main@_bb9_1 Bool )
(declare-var main@%.01.i.i_2 Int )
(declare-var main@.critedge.i.i_0 Bool )
(declare-var |tuple(main@_bb11_0, main@.critedge.i.i_0)| Bool )
(declare-var |tuple(main@_bb10_0, main@.critedge.i.i_0)| Bool )
(declare-var |tuple(main@_bb9_0, main@.critedge.i.i_0)| Bool )
(declare-var main@_bb13_0 Bool )
(declare-var main@_bb14_0 Bool )
(declare-var main@_bb15_0 Bool )
(declare-var main@%..i.i_0 Int )
(declare-var main@cmp.exit.i_0 Bool )
(declare-var |tuple(main@_bb14_0, main@cmp.exit.i_0)| Bool )
(declare-var |tuple(main@_bb13_0, main@cmp.exit.i_0)| Bool )
(declare-var |tuple(main@.critedge.i.i_0, main@cmp.exit.i_0)| Bool )
(declare-var main@%.0.i4.i_0 Int )
(declare-var main@%.0.i4.i_1 Int )
(declare-var main@%.0.i4.i_2 Int )
(declare-var main@%.0.i4.i_3 Int )
(declare-var main@%.0.i4.i_4 Int )
(declare-var main@_bb16_0 Bool )
(declare-var main@%.01.i5.i_0 Int )
(declare-var main@%.01.i5.i_1 Int )
(declare-var main@_bb17_0 Bool )
(declare-var main@_bb18_0 Bool )
(declare-var main@_bb19_0 Bool )
(declare-var main@%_76_0 Int )
(declare-var main@_bb16_1 Bool )
(declare-var main@%.01.i5.i_2 Int )
(declare-var main@.critedge.i6.i_0 Bool )
(declare-var |tuple(main@_bb18_0, main@.critedge.i6.i_0)| Bool )
(declare-var |tuple(main@_bb17_0, main@.critedge.i6.i_0)| Bool )
(declare-var |tuple(main@_bb16_0, main@.critedge.i6.i_0)| Bool )
(declare-var main@_bb20_0 Bool )
(declare-var main@_bb21_0 Bool )
(declare-var main@_bb22_0 Bool )
(declare-var main@%..i7.i_0 Int )
(declare-var main@cmp.exit9.i_0 Bool )
(declare-var |tuple(main@_bb21_0, main@cmp.exit9.i_0)| Bool )
(declare-var |tuple(main@_bb20_0, main@cmp.exit9.i_0)| Bool )
(declare-var |tuple(main@.critedge.i6.i_0, main@cmp.exit9.i_0)| Bool )
(declare-var main@%.0.i8.i_0 Int )
(declare-var main@%.0.i8.i_1 Int )
(declare-var main@%.0.i8.i_2 Int )
(declare-var main@%.0.i8.i_3 Int )
(declare-var main@_bb23_0 Bool )
(declare-var main@_bb24_0 Bool )
(declare-var main@verifier.error_0 Bool )
(declare-var main@verifier.error.split_0 Bool )
(rule (verifier.error false false false))
(rule (verifier.error false true true))
(rule (verifier.error true false true))
(rule (verifier.error true true true))
(rule (main@entry @__VERIFIER_nondet_char_0 @__VERIFIER_nondet_int_0))
(rule (=> (and (main@entry @__VERIFIER_nondet_char_0 @__VERIFIER_nondet_int_0)
         true
         (= main@%_0_0 @__VERIFIER_nondet_int_0)
         (> main@%_2_0 0)
         (=> main@_bb_0 (and main@_bb_0 main@entry_0))
         (=> (and main@_bb_0 main@entry_0)
             (= main@%shadow.mem.0.0_0 main@%sm5_0))
         (=> (and main@_bb_0 main@entry_0) (= main@%.0.i.i_0 0))
         (=> (and main@_bb_0 main@entry_0)
             (= main@%shadow.mem.0.0_1 main@%shadow.mem.0.0_0))
         (=> (and main@_bb_0 main@entry_0) (= main@%.0.i.i_1 main@%.0.i.i_0))
         main@_bb_0)
    (main@_bb @__VERIFIER_nondet_char_0
              main@%_2_0
              main@%.0.i.i_1
              main@%shadow.mem.0.0_1
              main@%_1_0
              @__VERIFIER_nondet_int_0
              main@%sm4_0)))
(rule (let ((a!1 (=> main@_bb6_0 (= main@%_9_0 (+ main@%_2_0 (* main@%.0.i.i_0 1))))))
(let ((a!2 (and (main@_bb @__VERIFIER_nondet_char_0
                          main@%_2_0
                          main@%.0.i.i_0
                          main@%shadow.mem.0.0_0
                          main@%_1_0
                          @__VERIFIER_nondet_int_0
                          main@%sm4_0)
                true
                (= main@%_4_0 (+ main@%_1_0 (- 1)))
                (= main@%_5_0 (< main@%.0.i.i_0 main@%_4_0))
                (=> main@_bb6_0 (and main@_bb6_0 main@_bb_0))
                (=> (and main@_bb6_0 main@_bb_0) main@%_5_0)
                (=> main@_bb6_0 (= main@%_7_0 @__VERIFIER_nondet_char_0))
                a!1
                (=> main@_bb6_0 (or (<= main@%_2_0 0) (> main@%_9_0 0)))
                (=> main@_bb6_0 (> main@%_2_0 0))
                (=> main@_bb6_0
                    (= main@%sm_0
                       (store main@%shadow.mem.0.0_0 main@%_9_0 main@%_8_0)))
                (=> main@_bb6_0 (= main@%_10_0 (+ main@%.0.i.i_0 1)))
                (=> main@_bb_1 (and main@_bb_1 main@_bb6_0))
                (=> (and main@_bb_1 main@_bb6_0)
                    (= main@%shadow.mem.0.0_1 main@%sm_0))
                (=> (and main@_bb_1 main@_bb6_0) (= main@%.0.i.i_1 main@%_10_0))
                (=> (and main@_bb_1 main@_bb6_0)
                    (= main@%shadow.mem.0.0_2 main@%shadow.mem.0.0_1))
                (=> (and main@_bb_1 main@_bb6_0)
                    (= main@%.0.i.i_2 main@%.0.i.i_1))
                main@_bb_1)))
  (=> a!2
      (main@_bb @__VERIFIER_nondet_char_0
                main@%_2_0
                main@%.0.i.i_2
                main@%shadow.mem.0.0_2
                main@%_1_0
                @__VERIFIER_nondet_int_0
                main@%sm4_0)))))
(rule (let ((a!1 (=> main@init.exit.i_0
               (= main@%_12_0 (+ main@%_2_0 (* main@%_11_0 1))))))
(let ((a!2 (and (main@_bb @__VERIFIER_nondet_char_0
                          main@%_2_0
                          main@%.0.i.i_0
                          main@%shadow.mem.0.0_0
                          main@%_1_0
                          @__VERIFIER_nondet_int_0
                          main@%sm4_0)
                true
                (= main@%_4_0 (+ main@%_1_0 (- 1)))
                (= main@%_5_0 (< main@%.0.i.i_0 main@%_4_0))
                (=> main@init.exit.i_0 (and main@init.exit.i_0 main@_bb_0))
                (=> (and main@init.exit.i_0 main@_bb_0) (not main@%_5_0))
                (=> main@init.exit.i_0 (= main@%_11_0 (+ main@%_1_0 (- 1))))
                a!1
                (=> main@init.exit.i_0 (or (<= main@%_2_0 0) (> main@%_12_0 0)))
                (=> main@init.exit.i_0 (> main@%_2_0 0))
                (=> main@init.exit.i_0
                    (= main@%sm1_0 (store main@%shadow.mem.0.0_0 main@%_12_0 0)))
                (=> main@init.exit.i_0 (= main@%_13_0 @__VERIFIER_nondet_int_0))
                (=> main@init.exit.i_0 (> main@%_15_0 0))
                (=> main@_bb7_0 (and main@_bb7_0 main@init.exit.i_0))
                (=> (and main@_bb7_0 main@init.exit.i_0)
                    (= main@%shadow.mem.1.0_0 main@%sm4_0))
                (=> (and main@_bb7_0 main@init.exit.i_0) (= main@%.0.i2.i_0 0))
                (=> (and main@_bb7_0 main@init.exit.i_0)
                    (= main@%shadow.mem.1.0_1 main@%shadow.mem.1.0_0))
                (=> (and main@_bb7_0 main@init.exit.i_0)
                    (= main@%.0.i2.i_1 main@%.0.i2.i_0))
                main@_bb7_0)))
  (=> a!2
      (main@_bb7 @__VERIFIER_nondet_char_0
                 main@%_2_0
                 main@%_15_0
                 main@%.0.i2.i_1
                 main@%shadow.mem.1.0_1
                 main@%sm1_0
                 main@%_14_0)))))
(rule (let ((a!1 (=> main@_bb8_0
               (= main@%_22_0 (+ main@%_15_0 (* main@%.0.i2.i_0 1))))))
(let ((a!2 (and (main@_bb7 @__VERIFIER_nondet_char_0
                           main@%_2_0
                           main@%_15_0
                           main@%.0.i2.i_0
                           main@%shadow.mem.1.0_0
                           main@%sm1_0
                           main@%_14_0)
                true
                (= main@%_17_0 (+ main@%_14_0 (- 1)))
                (= main@%_18_0 (< main@%.0.i2.i_0 main@%_17_0))
                (=> main@_bb8_0 (and main@_bb8_0 main@_bb7_0))
                (=> (and main@_bb8_0 main@_bb7_0) main@%_18_0)
                (=> main@_bb8_0 (= main@%_20_0 @__VERIFIER_nondet_char_0))
                a!1
                (=> main@_bb8_0 (or (<= main@%_15_0 0) (> main@%_22_0 0)))
                (=> main@_bb8_0 (> main@%_15_0 0))
                (=> main@_bb8_0
                    (= main@%sm2_0
                       (store main@%shadow.mem.1.0_0 main@%_22_0 main@%_21_0)))
                (=> main@_bb8_0 (= main@%_23_0 (+ main@%.0.i2.i_0 1)))
                (=> main@_bb7_1 (and main@_bb7_1 main@_bb8_0))
                (=> (and main@_bb7_1 main@_bb8_0)
                    (= main@%shadow.mem.1.0_1 main@%sm2_0))
                (=> (and main@_bb7_1 main@_bb8_0)
                    (= main@%.0.i2.i_1 main@%_23_0))
                (=> (and main@_bb7_1 main@_bb8_0)
                    (= main@%shadow.mem.1.0_2 main@%shadow.mem.1.0_1))
                (=> (and main@_bb7_1 main@_bb8_0)
                    (= main@%.0.i2.i_2 main@%.0.i2.i_1))
                main@_bb7_1)))
  (=> a!2
      (main@_bb7 @__VERIFIER_nondet_char_0
                 main@%_2_0
                 main@%_15_0
                 main@%.0.i2.i_2
                 main@%shadow.mem.1.0_2
                 main@%sm1_0
                 main@%_14_0)))))
(rule (let ((a!1 (=> main@init.exit3.i_0
               (= main@%_25_0 (+ main@%_15_0 (* main@%_24_0 1))))))
(let ((a!2 (and (main@_bb7 @__VERIFIER_nondet_char_0
                           main@%_2_0
                           main@%_15_0
                           main@%.0.i2.i_0
                           main@%shadow.mem.1.0_0
                           main@%sm1_0
                           main@%_14_0)
                true
                (= main@%_17_0 (+ main@%_14_0 (- 1)))
                (= main@%_18_0 (< main@%.0.i2.i_0 main@%_17_0))
                (=> main@init.exit3.i_0 (and main@init.exit3.i_0 main@_bb7_0))
                (=> (and main@init.exit3.i_0 main@_bb7_0) (not main@%_18_0))
                (=> main@init.exit3.i_0 (= main@%_24_0 (+ main@%_14_0 (- 1))))
                a!1
                (=> main@init.exit3.i_0
                    (or (<= main@%_15_0 0) (> main@%_25_0 0)))
                (=> main@init.exit3.i_0 (> main@%_15_0 0))
                (=> main@init.exit3.i_0
                    (= main@%sm3_0 (store main@%shadow.mem.1.0_0 main@%_25_0 0)))
                (=> main@_bb9_0 (and main@_bb9_0 main@init.exit3.i_0))
                (=> (and main@_bb9_0 main@init.exit3.i_0) (= main@%.01.i.i_0 0))
                (=> (and main@_bb9_0 main@init.exit3.i_0)
                    (= main@%.01.i.i_1 main@%.01.i.i_0))
                main@_bb9_0)))
  (=> a!2
      (main@_bb9 main@%_2_0 main@%_15_0 main@%sm3_0 main@%sm1_0 main@%.01.i.i_1)))))
(rule (let ((a!1 (=> main@_bb10_0
               (= main@%_31_0 (+ main@%_15_0 (* main@%.01.i.i_0 1)))))
      (a!2 (=> main@_bb11_0
               (= main@%_35_0 (+ main@%_2_0 (* main@%.01.i.i_0 1)))))
      (a!3 (=> main@_bb11_0
               (= main@%_37_0 (+ main@%_15_0 (* main@%.01.i.i_0 1))))))
(let ((a!4 (and (main@_bb9 main@%_2_0
                           main@%_15_0
                           main@%sm3_0
                           main@%sm1_0
                           main@%.01.i.i_0)
                true
                (= main@%_27_0 (+ main@%_2_0 (* main@%.01.i.i_0 1)))
                (or (<= main@%_2_0 0) (> main@%_27_0 0))
                (> main@%_2_0 0)
                (= main@%_28_0 (select main@%sm1_0 main@%_27_0))
                (= main@%_29_0 (= main@%_28_0 0))
                (=> main@_bb10_0 (and main@_bb10_0 main@_bb9_0))
                (=> (and main@_bb10_0 main@_bb9_0) (not main@%_29_0))
                a!1
                (=> main@_bb10_0 (or (<= main@%_15_0 0) (> main@%_31_0 0)))
                (=> main@_bb10_0 (> main@%_15_0 0))
                (=> main@_bb10_0
                    (= main@%_32_0 (select main@%sm3_0 main@%_31_0)))
                (=> main@_bb10_0 (= main@%_33_0 (= main@%_32_0 0)))
                (=> main@_bb11_0 (and main@_bb11_0 main@_bb10_0))
                (=> (and main@_bb11_0 main@_bb10_0) (not main@%_33_0))
                a!2
                (=> main@_bb11_0 (or (<= main@%_2_0 0) (> main@%_35_0 0)))
                (=> main@_bb11_0 (> main@%_2_0 0))
                (=> main@_bb11_0
                    (= main@%_36_0 (select main@%sm1_0 main@%_35_0)))
                a!3
                (=> main@_bb11_0 (or (<= main@%_15_0 0) (> main@%_37_0 0)))
                (=> main@_bb11_0 (> main@%_15_0 0))
                (=> main@_bb11_0
                    (= main@%_38_0 (select main@%sm3_0 main@%_37_0)))
                (=> main@_bb11_0 (= main@%_39_0 (= main@%_36_0 main@%_38_0)))
                (=> main@_bb12_0 (and main@_bb12_0 main@_bb11_0))
                (=> (and main@_bb12_0 main@_bb11_0) main@%_39_0)
                (=> main@_bb12_0 (= main@%_41_0 (+ main@%.01.i.i_0 1)))
                (=> main@_bb9_1 (and main@_bb9_1 main@_bb12_0))
                (=> (and main@_bb9_1 main@_bb12_0)
                    (= main@%.01.i.i_1 main@%_41_0))
                (=> (and main@_bb9_1 main@_bb12_0)
                    (= main@%.01.i.i_2 main@%.01.i.i_1))
                main@_bb9_1)))
  (=> a!4
      (main@_bb9 main@%_2_0 main@%_15_0 main@%sm3_0 main@%sm1_0 main@%.01.i.i_2)))))
(rule (let ((a!1 (=> main@_bb10_0
               (= main@%_31_0 (+ main@%_15_0 (* main@%.01.i.i_0 1)))))
      (a!2 (=> main@_bb11_0
               (= main@%_35_0 (+ main@%_2_0 (* main@%.01.i.i_0 1)))))
      (a!3 (=> main@_bb11_0
               (= main@%_37_0 (+ main@%_15_0 (* main@%.01.i.i_0 1)))))
      (a!4 (=> main@.critedge.i.i_0
               (= main@%_42_0 (+ main@%_2_0 (* main@%.01.i.i_0 1)))))
      (a!5 (=> main@.critedge.i.i_0
               (= main@%_44_0 (+ main@%_15_0 (* main@%.01.i.i_0 1)))))
      (a!6 (=> main@_bb13_0
               (= main@%_48_0 (+ main@%_2_0 (* main@%.01.i.i_0 1)))))
      (a!7 (=> main@_bb14_0
               (= main@%_52_0 (+ main@%_15_0 (* main@%.01.i.i_0 1)))))
      (a!8 (=> main@_bb15_0
               (= main@%_56_0 (+ main@%_2_0 (* main@%.01.i.i_0 1)))))
      (a!9 (=> main@_bb15_0
               (= main@%_58_0 (+ main@%_15_0 (* main@%.01.i.i_0 1))))))
(let ((a!10 (and (main@_bb9 main@%_2_0
                            main@%_15_0
                            main@%sm3_0
                            main@%sm1_0
                            main@%.01.i.i_0)
                 true
                 (= main@%_27_0 (+ main@%_2_0 (* main@%.01.i.i_0 1)))
                 (or (<= main@%_2_0 0) (> main@%_27_0 0))
                 (> main@%_2_0 0)
                 (= main@%_28_0 (select main@%sm1_0 main@%_27_0))
                 (= main@%_29_0 (= main@%_28_0 0))
                 (=> main@_bb10_0 (and main@_bb10_0 main@_bb9_0))
                 (=> (and main@_bb10_0 main@_bb9_0) (not main@%_29_0))
                 a!1
                 (=> main@_bb10_0 (or (<= main@%_15_0 0) (> main@%_31_0 0)))
                 (=> main@_bb10_0 (> main@%_15_0 0))
                 (=> main@_bb10_0
                     (= main@%_32_0 (select main@%sm3_0 main@%_31_0)))
                 (=> main@_bb10_0 (= main@%_33_0 (= main@%_32_0 0)))
                 (=> main@_bb11_0 (and main@_bb11_0 main@_bb10_0))
                 (=> (and main@_bb11_0 main@_bb10_0) (not main@%_33_0))
                 a!2
                 (=> main@_bb11_0 (or (<= main@%_2_0 0) (> main@%_35_0 0)))
                 (=> main@_bb11_0 (> main@%_2_0 0))
                 (=> main@_bb11_0
                     (= main@%_36_0 (select main@%sm1_0 main@%_35_0)))
                 a!3
                 (=> main@_bb11_0 (or (<= main@%_15_0 0) (> main@%_37_0 0)))
                 (=> main@_bb11_0 (> main@%_15_0 0))
                 (=> main@_bb11_0
                     (= main@%_38_0 (select main@%sm3_0 main@%_37_0)))
                 (=> main@_bb11_0 (= main@%_39_0 (= main@%_36_0 main@%_38_0)))
                 (=> |tuple(main@_bb11_0, main@.critedge.i.i_0)| main@_bb11_0)
                 (=> |tuple(main@_bb10_0, main@.critedge.i.i_0)| main@_bb10_0)
                 (=> |tuple(main@_bb9_0, main@.critedge.i.i_0)| main@_bb9_0)
                 (=> main@.critedge.i.i_0
                     (or |tuple(main@_bb11_0, main@.critedge.i.i_0)|
                         |tuple(main@_bb10_0, main@.critedge.i.i_0)|
                         |tuple(main@_bb9_0, main@.critedge.i.i_0)|))
                 (=> |tuple(main@_bb11_0, main@.critedge.i.i_0)|
                     (not main@%_39_0))
                 (=> |tuple(main@_bb10_0, main@.critedge.i.i_0)| main@%_33_0)
                 (=> |tuple(main@_bb9_0, main@.critedge.i.i_0)| main@%_29_0)
                 a!4
                 (=> main@.critedge.i.i_0
                     (or (<= main@%_2_0 0) (> main@%_42_0 0)))
                 (=> main@.critedge.i.i_0 (> main@%_2_0 0))
                 (=> main@.critedge.i.i_0
                     (= main@%_43_0 (select main@%sm1_0 main@%_42_0)))
                 a!5
                 (=> main@.critedge.i.i_0
                     (or (<= main@%_15_0 0) (> main@%_44_0 0)))
                 (=> main@.critedge.i.i_0 (> main@%_15_0 0))
                 (=> main@.critedge.i.i_0
                     (= main@%_45_0 (select main@%sm3_0 main@%_44_0)))
                 (=> main@.critedge.i.i_0
                     (= main@%_46_0 (= main@%_43_0 main@%_45_0)))
                 (=> main@_bb13_0 (and main@_bb13_0 main@.critedge.i.i_0))
                 (=> (and main@_bb13_0 main@.critedge.i.i_0) (not main@%_46_0))
                 a!6
                 (=> main@_bb13_0 (or (<= main@%_2_0 0) (> main@%_48_0 0)))
                 (=> main@_bb13_0 (> main@%_2_0 0))
                 (=> main@_bb13_0
                     (= main@%_49_0 (select main@%sm1_0 main@%_48_0)))
                 (=> main@_bb13_0 (= main@%_50_0 (= main@%_49_0 0)))
                 (=> main@_bb14_0 (and main@_bb14_0 main@_bb13_0))
                 (=> (and main@_bb14_0 main@_bb13_0) (not main@%_50_0))
                 a!7
                 (=> main@_bb14_0 (or (<= main@%_15_0 0) (> main@%_52_0 0)))
                 (=> main@_bb14_0 (> main@%_15_0 0))
                 (=> main@_bb14_0
                     (= main@%_53_0 (select main@%sm3_0 main@%_52_0)))
                 (=> main@_bb14_0 (= main@%_54_0 (= main@%_53_0 0)))
                 (=> main@_bb15_0 (and main@_bb15_0 main@_bb14_0))
                 (=> (and main@_bb15_0 main@_bb14_0) (not main@%_54_0))
                 a!8
                 (=> main@_bb15_0 (or (<= main@%_2_0 0) (> main@%_56_0 0)))
                 (=> main@_bb15_0 (> main@%_2_0 0))
                 (=> main@_bb15_0
                     (= main@%_57_0 (select main@%sm1_0 main@%_56_0)))
                 a!9
                 (=> main@_bb15_0 (or (<= main@%_15_0 0) (> main@%_58_0 0)))
                 (=> main@_bb15_0 (> main@%_15_0 0))
                 (=> main@_bb15_0
                     (= main@%_59_0 (select main@%sm3_0 main@%_58_0)))
                 (=> main@_bb15_0 (= main@%_60_0 (< main@%_57_0 main@%_59_0)))
                 (=> main@_bb15_0 (= main@%..i.i_0 (ite main@%_60_0 (- 1) 1)))
                 (=> |tuple(main@_bb14_0, main@cmp.exit.i_0)| main@_bb14_0)
                 (=> |tuple(main@_bb13_0, main@cmp.exit.i_0)| main@_bb13_0)
                 (=> |tuple(main@.critedge.i.i_0, main@cmp.exit.i_0)|
                     main@.critedge.i.i_0)
                 (=> main@cmp.exit.i_0
                     (or (and main@cmp.exit.i_0 main@_bb15_0)
                         |tuple(main@_bb14_0, main@cmp.exit.i_0)|
                         |tuple(main@_bb13_0, main@cmp.exit.i_0)|
                         |tuple(main@.critedge.i.i_0, main@cmp.exit.i_0)|))
                 (=> |tuple(main@_bb14_0, main@cmp.exit.i_0)| main@%_54_0)
                 (=> |tuple(main@_bb13_0, main@cmp.exit.i_0)| main@%_50_0)
                 (=> |tuple(main@.critedge.i.i_0, main@cmp.exit.i_0)|
                     main@%_46_0)
                 (=> (and main@cmp.exit.i_0 main@_bb15_0)
                     (= main@%.0.i4.i_0 main@%..i.i_0))
                 (=> |tuple(main@_bb14_0, main@cmp.exit.i_0)|
                     (= main@%.0.i4.i_1 1))
                 (=> |tuple(main@_bb13_0, main@cmp.exit.i_0)|
                     (= main@%.0.i4.i_2 (- 1)))
                 (=> |tuple(main@.critedge.i.i_0, main@cmp.exit.i_0)|
                     (= main@%.0.i4.i_3 0))
                 (=> (and main@cmp.exit.i_0 main@_bb15_0)
                     (= main@%.0.i4.i_4 main@%.0.i4.i_0))
                 (=> |tuple(main@_bb14_0, main@cmp.exit.i_0)|
                     (= main@%.0.i4.i_4 main@%.0.i4.i_1))
                 (=> |tuple(main@_bb13_0, main@cmp.exit.i_0)|
                     (= main@%.0.i4.i_4 main@%.0.i4.i_2))
                 (=> |tuple(main@.critedge.i.i_0, main@cmp.exit.i_0)|
                     (= main@%.0.i4.i_4 main@%.0.i4.i_3))
                 (=> main@_bb16_0 (and main@_bb16_0 main@cmp.exit.i_0))
                 (=> (and main@_bb16_0 main@cmp.exit.i_0)
                     (= main@%.01.i5.i_0 0))
                 (=> (and main@_bb16_0 main@cmp.exit.i_0)
                     (= main@%.01.i5.i_1 main@%.01.i5.i_0))
                 main@_bb16_0)))
  (=> a!10
      (main@_bb16 main@%_2_0
                  main@%_15_0
                  main@%.0.i4.i_4
                  main@%.01.i5.i_1
                  main@%sm3_0
                  main@%sm1_0)))))
(rule (let ((a!1 (=> main@_bb17_0
               (= main@%_66_0 (+ main@%_2_0 (* main@%.01.i5.i_0 1)))))
      (a!2 (=> main@_bb18_0
               (= main@%_70_0 (+ main@%_15_0 (* main@%.01.i5.i_0 1)))))
      (a!3 (=> main@_bb18_0
               (= main@%_72_0 (+ main@%_2_0 (* main@%.01.i5.i_0 1))))))
(let ((a!4 (and (main@_bb16 main@%_2_0
                            main@%_15_0
                            main@%.0.i4.i_0
                            main@%.01.i5.i_0
                            main@%sm3_0
                            main@%sm1_0)
                true
                (= main@%_62_0 (+ main@%_15_0 (* main@%.01.i5.i_0 1)))
                (or (<= main@%_15_0 0) (> main@%_62_0 0))
                (> main@%_15_0 0)
                (= main@%_63_0 (select main@%sm3_0 main@%_62_0))
                (= main@%_64_0 (= main@%_63_0 0))
                (=> main@_bb17_0 (and main@_bb17_0 main@_bb16_0))
                (=> (and main@_bb17_0 main@_bb16_0) (not main@%_64_0))
                a!1
                (=> main@_bb17_0 (or (<= main@%_2_0 0) (> main@%_66_0 0)))
                (=> main@_bb17_0 (> main@%_2_0 0))
                (=> main@_bb17_0
                    (= main@%_67_0 (select main@%sm1_0 main@%_66_0)))
                (=> main@_bb17_0 (= main@%_68_0 (= main@%_67_0 0)))
                (=> main@_bb18_0 (and main@_bb18_0 main@_bb17_0))
                (=> (and main@_bb18_0 main@_bb17_0) (not main@%_68_0))
                a!2
                (=> main@_bb18_0 (or (<= main@%_15_0 0) (> main@%_70_0 0)))
                (=> main@_bb18_0 (> main@%_15_0 0))
                (=> main@_bb18_0
                    (= main@%_71_0 (select main@%sm3_0 main@%_70_0)))
                a!3
                (=> main@_bb18_0 (or (<= main@%_2_0 0) (> main@%_72_0 0)))
                (=> main@_bb18_0 (> main@%_2_0 0))
                (=> main@_bb18_0
                    (= main@%_73_0 (select main@%sm1_0 main@%_72_0)))
                (=> main@_bb18_0 (= main@%_74_0 (= main@%_71_0 main@%_73_0)))
                (=> main@_bb19_0 (and main@_bb19_0 main@_bb18_0))
                (=> (and main@_bb19_0 main@_bb18_0) main@%_74_0)
                (=> main@_bb19_0 (= main@%_76_0 (+ main@%.01.i5.i_0 1)))
                (=> main@_bb16_1 (and main@_bb16_1 main@_bb19_0))
                (=> (and main@_bb16_1 main@_bb19_0)
                    (= main@%.01.i5.i_1 main@%_76_0))
                (=> (and main@_bb16_1 main@_bb19_0)
                    (= main@%.01.i5.i_2 main@%.01.i5.i_1))
                main@_bb16_1)))
  (=> a!4
      (main@_bb16 main@%_2_0
                  main@%_15_0
                  main@%.0.i4.i_0
                  main@%.01.i5.i_2
                  main@%sm3_0
                  main@%sm1_0)))))
(rule (let ((a!1 (=> main@_bb17_0
               (= main@%_66_0 (+ main@%_2_0 (* main@%.01.i5.i_0 1)))))
      (a!2 (=> main@_bb18_0
               (= main@%_70_0 (+ main@%_15_0 (* main@%.01.i5.i_0 1)))))
      (a!3 (=> main@_bb18_0
               (= main@%_72_0 (+ main@%_2_0 (* main@%.01.i5.i_0 1)))))
      (a!4 (=> main@.critedge.i6.i_0
               (= main@%_77_0 (+ main@%_15_0 (* main@%.01.i5.i_0 1)))))
      (a!5 (=> main@.critedge.i6.i_0
               (= main@%_79_0 (+ main@%_2_0 (* main@%.01.i5.i_0 1)))))
      (a!6 (=> main@_bb20_0
               (= main@%_83_0 (+ main@%_15_0 (* main@%.01.i5.i_0 1)))))
      (a!7 (=> main@_bb21_0
               (= main@%_87_0 (+ main@%_2_0 (* main@%.01.i5.i_0 1)))))
      (a!8 (=> main@_bb22_0
               (= main@%_91_0 (+ main@%_15_0 (* main@%.01.i5.i_0 1)))))
      (a!9 (=> main@_bb22_0
               (= main@%_93_0 (+ main@%_2_0 (* main@%.01.i5.i_0 1))))))
(let ((a!10 (and (main@_bb16 main@%_2_0
                             main@%_15_0
                             main@%.0.i4.i_0
                             main@%.01.i5.i_0
                             main@%sm3_0
                             main@%sm1_0)
                 true
                 (= main@%_62_0 (+ main@%_15_0 (* main@%.01.i5.i_0 1)))
                 (or (<= main@%_15_0 0) (> main@%_62_0 0))
                 (> main@%_15_0 0)
                 (= main@%_63_0 (select main@%sm3_0 main@%_62_0))
                 (= main@%_64_0 (= main@%_63_0 0))
                 (=> main@_bb17_0 (and main@_bb17_0 main@_bb16_0))
                 (=> (and main@_bb17_0 main@_bb16_0) (not main@%_64_0))
                 a!1
                 (=> main@_bb17_0 (or (<= main@%_2_0 0) (> main@%_66_0 0)))
                 (=> main@_bb17_0 (> main@%_2_0 0))
                 (=> main@_bb17_0
                     (= main@%_67_0 (select main@%sm1_0 main@%_66_0)))
                 (=> main@_bb17_0 (= main@%_68_0 (= main@%_67_0 0)))
                 (=> main@_bb18_0 (and main@_bb18_0 main@_bb17_0))
                 (=> (and main@_bb18_0 main@_bb17_0) (not main@%_68_0))
                 a!2
                 (=> main@_bb18_0 (or (<= main@%_15_0 0) (> main@%_70_0 0)))
                 (=> main@_bb18_0 (> main@%_15_0 0))
                 (=> main@_bb18_0
                     (= main@%_71_0 (select main@%sm3_0 main@%_70_0)))
                 a!3
                 (=> main@_bb18_0 (or (<= main@%_2_0 0) (> main@%_72_0 0)))
                 (=> main@_bb18_0 (> main@%_2_0 0))
                 (=> main@_bb18_0
                     (= main@%_73_0 (select main@%sm1_0 main@%_72_0)))
                 (=> main@_bb18_0 (= main@%_74_0 (= main@%_71_0 main@%_73_0)))
                 (=> |tuple(main@_bb18_0, main@.critedge.i6.i_0)| main@_bb18_0)
                 (=> |tuple(main@_bb17_0, main@.critedge.i6.i_0)| main@_bb17_0)
                 (=> |tuple(main@_bb16_0, main@.critedge.i6.i_0)| main@_bb16_0)
                 (=> main@.critedge.i6.i_0
                     (or |tuple(main@_bb18_0, main@.critedge.i6.i_0)|
                         |tuple(main@_bb17_0, main@.critedge.i6.i_0)|
                         |tuple(main@_bb16_0, main@.critedge.i6.i_0)|))
                 (=> |tuple(main@_bb18_0, main@.critedge.i6.i_0)|
                     (not main@%_74_0))
                 (=> |tuple(main@_bb17_0, main@.critedge.i6.i_0)| main@%_68_0)
                 (=> |tuple(main@_bb16_0, main@.critedge.i6.i_0)| main@%_64_0)
                 a!4
                 (=> main@.critedge.i6.i_0
                     (or (<= main@%_15_0 0) (> main@%_77_0 0)))
                 (=> main@.critedge.i6.i_0 (> main@%_15_0 0))
                 (=> main@.critedge.i6.i_0
                     (= main@%_78_0 (select main@%sm3_0 main@%_77_0)))
                 a!5
                 (=> main@.critedge.i6.i_0
                     (or (<= main@%_2_0 0) (> main@%_79_0 0)))
                 (=> main@.critedge.i6.i_0 (> main@%_2_0 0))
                 (=> main@.critedge.i6.i_0
                     (= main@%_80_0 (select main@%sm1_0 main@%_79_0)))
                 (=> main@.critedge.i6.i_0
                     (= main@%_81_0 (= main@%_78_0 main@%_80_0)))
                 (=> main@_bb20_0 (and main@_bb20_0 main@.critedge.i6.i_0))
                 (=> (and main@_bb20_0 main@.critedge.i6.i_0) (not main@%_81_0))
                 a!6
                 (=> main@_bb20_0 (or (<= main@%_15_0 0) (> main@%_83_0 0)))
                 (=> main@_bb20_0 (> main@%_15_0 0))
                 (=> main@_bb20_0
                     (= main@%_84_0 (select main@%sm3_0 main@%_83_0)))
                 (=> main@_bb20_0 (= main@%_85_0 (= main@%_84_0 0)))
                 (=> main@_bb21_0 (and main@_bb21_0 main@_bb20_0))
                 (=> (and main@_bb21_0 main@_bb20_0) (not main@%_85_0))
                 a!7
                 (=> main@_bb21_0 (or (<= main@%_2_0 0) (> main@%_87_0 0)))
                 (=> main@_bb21_0 (> main@%_2_0 0))
                 (=> main@_bb21_0
                     (= main@%_88_0 (select main@%sm1_0 main@%_87_0)))
                 (=> main@_bb21_0 (= main@%_89_0 (= main@%_88_0 0)))
                 (=> main@_bb22_0 (and main@_bb22_0 main@_bb21_0))
                 (=> (and main@_bb22_0 main@_bb21_0) (not main@%_89_0))
                 a!8
                 (=> main@_bb22_0 (or (<= main@%_15_0 0) (> main@%_91_0 0)))
                 (=> main@_bb22_0 (> main@%_15_0 0))
                 (=> main@_bb22_0
                     (= main@%_92_0 (select main@%sm3_0 main@%_91_0)))
                 a!9
                 (=> main@_bb22_0 (or (<= main@%_2_0 0) (> main@%_93_0 0)))
                 (=> main@_bb22_0 (> main@%_2_0 0))
                 (=> main@_bb22_0
                     (= main@%_94_0 (select main@%sm1_0 main@%_93_0)))
                 (=> main@_bb22_0 (= main@%_95_0 (< main@%_92_0 main@%_94_0)))
                 (=> main@_bb22_0 (= main@%..i7.i_0 (ite main@%_95_0 (- 1) 1)))
                 (=> |tuple(main@_bb21_0, main@cmp.exit9.i_0)| main@_bb21_0)
                 (=> |tuple(main@_bb20_0, main@cmp.exit9.i_0)| main@_bb20_0)
                 (=> |tuple(main@.critedge.i6.i_0, main@cmp.exit9.i_0)|
                     main@.critedge.i6.i_0)
                 (=> main@cmp.exit9.i_0
                     (or (and main@cmp.exit9.i_0 main@_bb22_0)
                         |tuple(main@_bb21_0, main@cmp.exit9.i_0)|
                         |tuple(main@_bb20_0, main@cmp.exit9.i_0)|
                         |tuple(main@.critedge.i6.i_0, main@cmp.exit9.i_0)|))
                 (=> |tuple(main@_bb21_0, main@cmp.exit9.i_0)| main@%_89_0)
                 (=> |tuple(main@_bb20_0, main@cmp.exit9.i_0)| main@%_85_0)
                 (=> |tuple(main@.critedge.i6.i_0, main@cmp.exit9.i_0)|
                     main@%_81_0)
                 (=> (and main@cmp.exit9.i_0 main@_bb22_0)
                     (= main@%.0.i8.i_0 main@%..i7.i_0))
                 (=> |tuple(main@_bb21_0, main@cmp.exit9.i_0)|
                     (= main@%.0.i8.i_1 1))
                 (=> |tuple(main@_bb20_0, main@cmp.exit9.i_0)|
                     (= main@%.0.i8.i_2 (- 1)))
                 (=> |tuple(main@.critedge.i6.i_0, main@cmp.exit9.i_0)|
                     (= main@%.0.i8.i_3 0))
                 (=> (and main@cmp.exit9.i_0 main@_bb22_0)
                     (= main@%.0.i8.i_4 main@%.0.i8.i_0))
                 (=> |tuple(main@_bb21_0, main@cmp.exit9.i_0)|
                     (= main@%.0.i8.i_4 main@%.0.i8.i_1))
                 (=> |tuple(main@_bb20_0, main@cmp.exit9.i_0)|
                     (= main@%.0.i8.i_4 main@%.0.i8.i_2))
                 (=> |tuple(main@.critedge.i6.i_0, main@cmp.exit9.i_0)|
                     (= main@%.0.i8.i_4 main@%.0.i8.i_3))
                 (=> main@cmp.exit9.i_0 (= main@%_96_0 (< main@%.0.i4.i_0 1)))
                 (=> main@cmp.exit9.i_0 (= main@%_97_0 (< main@%.0.i8.i_4 1)))
                 (=> main@cmp.exit9.i_0
                     (= main@%or.cond.i_0 (and main@%_96_0 main@%_97_0)))
                 (=> main@cmp.exit9.i_0 main@%or.cond.i_0)
                 (=> main@_bb23_0 (and main@_bb23_0 main@cmp.exit9.i_0))
                 (=> main@_bb23_0 (= main@%_99_0 (= main@%.0.i4.i_0 0)))
                 (=> main@_bb23_0 (= main@%_100_0 (ite main@%_99_0 1 0)))
                 (=> main@_bb23_0 (= main@%_101_0 (= main@%_100_0 0)))
                 (=> main@_bb23_0 main@%_101_0)
                 (=> main@_bb24_0 (and main@_bb24_0 main@_bb23_0))
                 (=> main@verifier.error_0
                     (and main@verifier.error_0 main@_bb24_0))
                 (=> main@verifier.error.split_0
                     (and main@verifier.error.split_0 main@verifier.error_0))
                 main@verifier.error.split_0)))
  (=> a!10 main@verifier.error.split))))
(query main@verifier.error.split)

